nNurses = 50;
nHours = 29;
minHours = 4;
maxHours = 17;
maxConsec = 12;
maxPresence = 22;
demand = [17, 13, 16, 14, 12, 10, 14, 15, 10, 7, 8, 13, 18, 16, 14, 13, 8, 8, 8, 9, 14, 9, 12, 9, 8, 7, 12, 14, 11];
